#######################################
### Exact MIP solver for the HHCRSP ###
#######################################
-- Instance file: new-instances/HHCRSP_400_80_62_1.6_R_RC.txt
-- Max threads: 4
-- Time limit: 999999 seconds
-- Use initial solution: No
Trivial flow violations prevented generating 2717834 variables.
Version identifier: 20.1.0.0 | 2020-11-10 | 9bedb6d68
CPXPARAM_Threads                                 4
CPXPARAM_Emphasis_Memory                         1
CPXPARAM_TimeLimit                               999999
Tried aggregator 1 time.
Presolve has eliminated 81312 rows and 18212 columns...
LP Presolve eliminated 81312 rows and 18212 columns.
Reduced LP has 2922216 rows, 2774613 columns, and 81360298 nonzeros.
Presolve time = 81.51 sec. (17314.98 ticks)
Compression time = 20.28 sec. (5.53 ticks)
Compression reduced 1180.45 MB A matrix to 355.46 MB
Symmetry aggregator did 4959458 additional substitutions.
Initializing dual steep norms . . .
Elapsed time = 103.17 sec. (18009.42 ticks, 1 iterations)

Iteration log . . .
Iteration:     1   Dual objective     =             1.333333
Iteration:  1798   Dual objective     =           449.333333

Dual crossover.
  Dual:  Fixing 2849 variables.
     2848 DMoves:  Infeasibility  3.37391226e-12  Objective  4.52333333e+02
        0 DMoves:  Infeasibility  1.39308010e-12  Objective  4.52333333e+02
  Dual:  Pushed 88, exchanged 2761.
  Primal:  Fixing 2438 variables.
     2437 PMoves:  Infeasibility  0.00000000e+00  Objective  4.52333333e+02
        0 PMoves:  Infeasibility  0.00000000e+00  Objective  4.52333333e+02
  Primal:  Pushed 2239, exchanged 199.

Solution status from MIP model:
-- Processing time: 138.863 sec.
-- Memory used: 1875.41 MB
-- Best bound: inf
-- Obj value: 452.333
-- Gap: inf%
-- Total distance: 1357
-- Total tardiness: 0
-- Largest tardiness: 0
